1468 100
 0 4
 0 5
 0 7
 0 8
 0 12
 0 15
 0 25
 0 36
 0 42
 0 43
 0 49
 0 50
 0 53
 0 54
 0 60
 0 66
 0 69
 0 71
 0 72
 0 73
 0 76
 0 77
 0 80
 0 81
 0 86
 0 88
 0 97
 0 99
 1 5
 1 6
 1 7
 1 12
 1 13
 1 18
 1 20
 1 23
 1 27
 1 31
 1 33
 1 37
 1 38
 1 44
 1 51
 1 52
 1 54
 1 56
 1 58
 1 59
 1 66
 1 71
 1 73
 1 74
 1 78
 1 86
 1 88
 1 95
 2 7
 2 10
 2 14
 2 18
 2 33
 2 37
 2 40
 2 43
 2 46
 2 48
 2 49
 2 53
 2 57
 2 59
 2 62
 2 76
 2 78
 2 80
 2 83
 2 84
 2 85
 2 90
 2 92
 2 96
 2 97
 3 9
 3 10
 3 12
 3 13
 3 14
 3 15
 3 16
 3 17
 3 23
 3 35
 3 36
 3 37
 3 43
 3 47
 3 49
 3 65
 3 69
 3 73
 3 76
 3 77
 3 80
 3 81
 3 82
 3 86
 3 88
 3 97
 4 7
 4 8
 4 9
 4 11
 4 12
 4 16
 4 19
 4 20
 4 22
 4 32
 4 38
 4 40
 4 41
 4 42
 4 44
 4 47
 4 48
 4 49
 4 51
 4 52
 4 55
 4 61
 4 65
 4 69
 4 70
 4 74
 4 88
 4 89
 4 90
 4 96
 4 98
 4 99
 5 6
 5 12
 5 13
 5 16
 5 19
 5 24
 5 28
 5 30
 5 31
 5 33
 5 34
 5 36
 5 39
 5 42
 5 43
 5 44
 5 46
 5 48
 5 49
 5 53
 5 55
 5 57
 5 58
 5 60
 5 62
 5 65
 5 67
 5 68
 5 69
 5 75
 5 80
 5 81
 5 88
 5 90
 5 94
 5 98
 6 9
 6 11
 6 15
 6 16
 6 19
 6 22
 6 25
 6 26
 6 28
 6 30
 6 32
 6 33
 6 36
 6 38
 6 41
 6 44
 6 47
 6 48
 6 51
 6 54
 6 55
 6 60
 6 62
 6 63
 6 64
 6 65
 6 66
 6 68
 6 69
 6 71
 6 78
 6 86
 6 89
 6 91
 6 93
 6 94
 6 98
 6 99
 7 11
 7 12
 7 13
 7 15
 7 24
 7 27
 7 29
 7 30
 7 32
 7 33
 7 34
 7 35
 7 46
 7 50
 7 53
 7 54
 7 59
 7 66
 7 68
 7 75
 7 77
 7 83
 7 84
 7 86
 7 95
 7 96
 7 97
 8 9
 8 14
 8 16
 8 27
 8 35
 8 40
 8 43
 8 45
 8 46
 8 48
 8 54
 8 56
 8 61
 8 65
 8 66
 8 67
 8 68
 8 72
 8 73
 8 74
 8 75
 8 80
 8 81
 8 97
 9 10
 9 11
 9 14
 9 16
 9 18
 9 21
 9 28
 9 29
 9 30
 9 38
 9 41
 9 45
 9 55
 9 63
 9 64
 9 65
 9 75
 9 78
 9 80
 9 81
 9 84
 9 86
 9 88
 9 91
 9 93
 9 94
 9 98
 9 99
 10 11
 10 21
 10 22
 10 23
 10 29
 10 32
 10 37
 10 41
 10 43
 10 44
 10 46
 10 47
 10 49
 10 51
 10 52
 10 59
 10 61
 10 69
 10 74
 10 78
 10 84
 10 86
 10 93
 10 96
 11 12
 11 13
 11 16
 11 22
 11 26
 11 29
 11 34
 11 35
 11 40
 11 43
 11 45
 11 54
 11 55
 11 63
 11 66
 11 69
 11 75
 11 78
 11 81
 11 86
 11 87
 11 92
 11 98
 12 14
 12 16
 12 17
 12 22
 12 27
 12 28
 12 30
 12 35
 12 38
 12 40
 12 41
 12 43
 12 45
 12 48
 12 54
 12 56
 12 71
 12 74
 12 85
 12 90
 13 16
 13 18
 13 20
 13 21
 13 28
 13 29
 13 31
 13 32
 13 39
 13 40
 13 47
 13 48
 13 54
 13 55
 13 58
 13 64
 13 78
 13 82
 13 85
 13 87
 13 88
 13 90
 13 91
 13 95
 13 97
 13 98
 14 17
 14 20
 14 21
 14 23
 14 24
 14 29
 14 31
 14 35
 14 38
 14 40
 14 42
 14 43
 14 45
 14 49
 14 51
 14 57
 14 59
 14 61
 14 62
 14 63
 14 64
 14 66
 14 67
 14 69
 14 71
 14 72
 14 74
 14 85
 14 87
 14 88
 14 95
 14 96
 14 97
 14 99
 15 16
 15 20
 15 28
 15 33
 15 35
 15 36
 15 49
 15 53
 15 54
 15 55
 15 61
 15 63
 15 64
 15 66
 15 68
 15 69
 15 82
 15 88
 15 89
 15 91
 15 93
 16 18
 16 27
 16 28
 16 33
 16 34
 16 35
 16 38
 16 39
 16 41
 16 44
 16 47
 16 60
 16 62
 16 68
 16 73
 16 76
 16 81
 16 93
 16 95
 16 96
 16 98
 16 99
 17 27
 17 36
 17 39
 17 40
 17 43
 17 44
 17 46
 17 48
 17 50
 17 51
 17 52
 17 54
 17 55
 17 59
 17 62
 17 63
 17 65
 17 66
 17 67
 17 71
 17 77
 17 78
 17 80
 17 84
 17 88
 17 90
 17 93
 17 94
 17 99
 18 19
 18 22
 18 24
 18 26
 18 31
 18 40
 18 45
 18 46
 18 48
 18 50
 18 54
 18 57
 18 59
 18 61
 18 62
 18 63
 18 65
 18 68
 18 74
 18 79
 18 81
 18 83
 18 87
 18 90
 18 92
 19 20
 19 24
 19 58
 19 60
 19 62
 19 68
 19 69
 19 71
 19 73
 19 76
 19 77
 19 84
 19 87
 19 88
 19 94
 19 96
 19 97
 20 36
 20 41
 20 43
 20 46
 20 54
 20 55
 20 61
 20 62
 20 64
 20 67
 20 72
 20 74
 20 76
 20 78
 20 80
 20 92
 20 96
 20 98
 20 99
 21 34
 21 38
 21 39
 21 40
 21 43
 21 48
 21 53
 21 54
 21 55
 21 67
 21 68
 21 69
 21 71
 21 77
 21 79
 21 81
 21 85
 21 87
 21 89
 21 93
 21 95
 21 97
 21 98
 22 26
 22 28
 22 31
 22 33
 22 36
 22 37
 22 48
 22 52
 22 59
 22 63
 22 64
 22 69
 22 73
 22 75
 22 80
 22 81
 22 83
 22 87
 22 90
 22 92
 22 96
 23 27
 23 30
 23 35
 23 37
 23 40
 23 48
 23 50
 23 51
 23 53
 23 55
 23 61
 23 70
 23 72
 23 77
 23 82
 23 91
 23 92
 23 93
 23 94
 23 95
 23 97
 24 26
 24 27
 24 32
 24 36
 24 42
 24 44
 24 48
 24 54
 24 60
 24 65
 24 67
 24 76
 24 81
 24 84
 24 86
 24 89
 24 90
 24 93
 24 98
 24 99
 25 30
 25 35
 25 37
 25 38
 25 50
 25 52
 25 56
 25 61
 25 62
 25 67
 25 70
 25 72
 25 75
 25 77
 25 78
 25 79
 25 85
 25 87
 25 88
 25 91
 25 94
 26 37
 26 43
 26 50
 26 51
 26 58
 26 64
 26 66
 26 70
 26 77
 26 79
 26 80
 26 81
 26 83
 26 86
 26 87
 26 89
 26 90
 26 95
 27 28
 27 36
 27 37
 27 43
 27 47
 27 49
 27 51
 27 53
 27 60
 27 61
 27 64
 27 65
 27 67
 27 72
 27 73
 27 76
 27 78
 27 80
 27 85
 27 87
 27 92
 27 94
 27 96
 28 32
 28 35
 28 39
 28 41
 28 42
 28 44
 28 46
 28 58
 28 65
 28 73
 28 75
 28 76
 28 77
 28 78
 28 80
 28 94
 28 95
 28 96
 28 97
 28 99
 29 30
 29 31
 29 34
 29 35
 29 40
 29 41
 29 42
 29 43
 29 45
 29 54
 29 56
 29 57
 29 61
 29 64
 29 68
 29 71
 29 75
 29 77
 29 79
 29 81
 29 85
 29 93
 29 97
 30 31
 30 33
 30 34
 30 35
 30 52
 30 57
 30 63
 30 66
 30 70
 30 74
 30 75
 30 76
 30 81
 30 85
 30 90
 30 93
 30 96
 30 97
 30 98
 30 99
 31 36
 31 38
 31 43
 31 44
 31 49
 31 55
 31 57
 31 62
 31 67
 31 79
 31 81
 31 83
 31 86
 31 87
 31 94
 31 95
 32 33
 32 34
 32 37
 32 38
 32 43
 32 48
 32 49
 32 50
 32 52
 32 57
 32 59
 32 61
 32 73
 32 75
 32 80
 32 83
 32 86
 32 90
 32 94
 33 38
 33 41
 33 43
 33 44
 33 47
 33 52
 33 56
 33 57
 33 58
 33 59
 33 61
 33 64
 33 67
 33 69
 33 70
 33 75
 33 77
 33 82
 33 88
 33 91
 33 98
 34 52
 34 53
 34 58
 34 62
 34 63
 34 65
 34 68
 34 71
 34 73
 34 75
 34 78
 34 83
 34 84
 34 85
 34 93
 34 94
 34 95
 34 99
 35 40
 35 45
 35 47
 35 49
 35 50
 35 53
 35 55
 35 58
 35 59
 35 61
 35 63
 35 66
 35 67
 35 70
 35 71
 35 72
 35 75
 35 79
 35 86
 35 88
 35 93
 36 38
 36 42
 36 50
 36 54
 36 55
 36 56
 36 57
 36 64
 36 65
 36 66
 36 71
 36 73
 36 79
 36 80
 36 86
 36 87
 36 93
 36 94
 36 95
 36 96
 36 97
 36 99
 37 40
 37 41
 37 42
 37 43
 37 46
 37 47
 37 59
 37 60
 37 73
 37 77
 37 79
 37 80
 37 81
 37 87
 37 88
 37 90
 37 92
 37 93
 37 96
 38 40
 38 42
 38 44
 38 50
 38 52
 38 58
 38 61
 38 63
 38 64
 38 68
 38 70
 38 84
 38 85
 38 87
 38 90
 38 94
 38 95
 39 47
 39 48
 39 49
 39 52
 39 54
 39 59
 39 62
 39 67
 39 73
 39 74
 39 79
 39 83
 39 84
 39 85
 39 87
 39 88
 39 93
 40 42
 40 46
 40 48
 40 49
 40 58
 40 59
 40 62
 40 69
 40 71
 40 75
 40 78
 40 84
 40 89
 40 93
 40 94
 40 98
 41 46
 41 47
 41 52
 41 54
 41 55
 41 57
 41 58
 41 60
 41 64
 41 67
 41 68
 41 72
 41 75
 41 79
 41 82
 41 83
 41 84
 41 85
 41 86
 42 43
 42 44
 42 46
 42 48
 42 50
 42 51
 42 53
 42 56
 42 57
 42 60
 42 72
 42 74
 42 80
 42 83
 42 84
 42 85
 42 86
 42 97
 42 98
 42 99
 43 48
 43 49
 43 50
 43 52
 43 53
 43 55
 43 58
 43 65
 43 66
 43 67
 43 69
 43 70
 43 73
 43 74
 43 75
 43 81
 43 82
 43 84
 43 92
 43 94
 43 96
 43 98
 44 45
 44 53
 44 54
 44 55
 44 62
 44 67
 44 69
 44 71
 44 74
 44 75
 44 76
 44 79
 44 83
 44 84
 44 87
 44 92
 44 93
 44 94
 44 95
 44 99
 45 47
 45 51
 45 57
 45 60
 45 63
 45 64
 45 65
 45 72
 45 73
 45 74
 45 77
 45 78
 45 84
 45 86
 45 89
 45 90
 45 95
 45 97
 45 99
 46 57
 46 58
 46 59
 46 63
 46 64
 46 74
 46 79
 46 80
 46 85
 46 87
 46 94
 46 96
 47 52
 47 54
 47 55
 47 60
 47 62
 47 63
 47 67
 47 72
 47 73
 47 78
 47 79
 47 80
 47 85
 47 88
 47 89
 47 91
 47 96
 47 97
 47 99
 48 49
 48 50
 48 52
 48 54
 48 57
 48 65
 48 66
 48 67
 48 70
 48 73
 48 80
 48 81
 48 82
 48 86
 48 90
 48 91
 48 92
 48 93
 48 95
 48 96
 48 97
 49 52
 49 53
 49 54
 49 57
 49 65
 49 66
 49 71
 49 74
 49 77
 49 81
 49 82
 49 83
 49 84
 49 85
 49 86
 50 52
 50 56
 50 57
 50 71
 50 72
 50 73
 50 82
 50 85
 50 87
 50 94
 51 57
 51 58
 51 62
 51 63
 51 68
 51 71
 51 74
 51 75
 51 76
 51 80
 51 82
 51 83
 51 88
 51 93
 51 96
 51 97
 52 53
 52 56
 52 57
 52 61
 52 63
 52 64
 52 71
 52 73
 52 75
 52 78
 52 83
 52 87
 52 91
 52 92
 52 93
 53 54
 53 55
 53 59
 53 64
 53 69
 53 72
 53 75
 53 76
 53 80
 53 86
 53 87
 53 91
 53 93
 53 98
 54 65
 54 68
 54 70
 54 74
 54 81
 54 82
 54 85
 54 89
 54 92
 54 94
 54 97
 55 60
 55 61
 55 68
 55 70
 55 71
 55 75
 55 78
 55 82
 55 83
 55 86
 55 87
 55 92
 55 99
 56 57
 56 58
 56 59
 56 62
 56 66
 56 71
 56 72
 56 73
 56 80
 56 82
 56 84
 56 86
 56 91
 56 95
 56 96
 57 67
 57 69
 57 77
 57 79
 57 83
 57 85
 57 86
 57 87
 57 88
 57 90
 57 93
 57 98
 58 64
 58 65
 58 75
 58 77
 58 82
 58 84
 58 86
 58 88
 58 89
 58 90
 58 95
 58 99
 59 76
 59 83
 59 88
 59 91
 59 93
 59 94
 59 95
 59 98
 60 61
 60 67
 60 68
 60 70
 60 71
 60 73
 60 78
 60 83
 60 85
 60 87
 60 94
 60 98
 61 64
 61 67
 61 71
 61 73
 61 75
 61 78
 61 82
 61 84
 61 85
 61 92
 61 93
 61 98
 61 99
 62 65
 62 67
 62 68
 62 69
 62 74
 62 77
 62 78
 62 79
 62 81
 62 83
 62 84
 62 86
 62 87
 62 88
 62 90
 62 93
 62 96
 63 64
 63 66
 63 68
 63 73
 63 77
 63 79
 63 80
 63 82
 63 83
 63 87
 63 89
 63 91
 63 95
 63 97
 63 98
 64 65
 64 68
 64 77
 64 80
 64 81
 64 94
 65 66
 65 71
 65 83
 65 84
 65 88
 65 99
 66 71
 66 75
 66 81
 66 83
 66 86
 66 88
 66 92
 66 98
 67 69
 67 75
 67 88
 67 93
 67 94
 67 95
 67 98
 68 81
 68 84
 68 87
 68 91
 68 93
 68 95
 68 99
 69 70
 69 71
 69 75
 69 81
 69 85
 69 86
 69 95
 69 96
 69 97
 69 98
 70 73
 70 74
 70 76
 70 80
 70 84
 70 89
 70 93
 70 98
 70 99
 71 75
 71 77
 71 80
 71 81
 71 83
 71 84
 71 87
 71 88
 71 90
 71 91
 71 94
 71 97
 72 73
 72 74
 72 80
 72 83
 72 86
 72 91
 72 93
 72 98
 73 74
 73 76
 73 79
 73 85
 73 92
 73 93
 73 94
 73 98
 74 81
 74 83
 74 87
 74 91
 74 95
 74 96
 75 78
 75 80
 75 81
 75 83
 75 84
 75 89
 75 94
 75 95
 76 88
 76 89
 76 91
 76 92
 76 95
 76 99
 77 78
 77 83
 77 88
 77 92
 77 96
 77 97
 78 79
 78 81
 78 85
 78 86
 78 87
 78 88
 78 89
 78 98
 78 99
 79 83
 79 93
 79 96
 79 99
 80 81
 80 82
 80 84
 80 85
 80 92
 80 93
 80 94
 80 96
 81 91
 81 96
 82 87
 82 89
 82 94
 82 96
 82 99
 83 85
 83 87
 83 90
 84 85
 84 92
 84 93
 84 94
 84 96
 84 97
 84 98
 84 99
 85 86
 85 91
 85 94
 85 97
 85 99
 86 90
 86 92
 86 93
 87 89
 87 91
 88 91
 88 92
 89 91
 89 92
 89 99
 90 93
 90 98
 91 98
 92 95
 93 95
 93 99
 94 99
 96 99
 97 98